% File represents an instance of a Composite Structure problem to be solved by a CP framework
% Created on 2025-03-26 10:41:51.303
T = 54;
n = 36;
m = 60;
edges = [(1, 2),
(7, 8),
(13, 14),
(19, 20),
(25, 26),
(31, 32),
(2, 3),
(8, 9),
(14, 15),
(20, 21),
(26, 27),
(32, 33),
(3, 4),
(9, 10),
(15, 16),
(22, 21),
(28, 27),
(33, 34),
(5, 4),
(11, 10),
(16, 17),
(22, 23),
(28, 29),
(35, 34),
(6, 5),
(12, 11),
(18, 17),
(24, 23),
(29, 30),
(35, 36),
(7, 1),
(13, 7),
(13, 19),
(25, 19),
(31, 25),
(8, 2),
(14, 8),
(14, 20),
(26, 20),
(32, 26),
(9, 3),
(15, 9),
(15, 21),
(27, 21),
(33, 27),
(10, 4),
(16, 10),
(22, 16),
(28, 22),
(28, 34),
(11, 5),
(11, 17),
(23, 17),
(29, 23),
(35, 29),
(12, 6),
(12, 18),
(24, 18),
(24, 30),
(36, 30)];
counts = [|2, 20, 2, 20,
|2, 16, 2, 18,
|2, 14, 2, 14,
|2, 12, 2, 14,
|2, 16, 2, 14,
|2, 18, 2, 16,
|2, 22, 2, 20,
|2, 16, 2, 20,
|2, 14, 2, 18,
|2, 14, 2, 14,
|2, 16, 2, 16,
|2, 18, 2, 18,
|2, 24, 2, 22,
|2, 20, 2, 20,
|2, 16, 2, 20,
|2, 16, 2, 18,
|2, 14, 2, 14,
|2, 14, 2, 16,
|2, 22, 2, 20,
|2, 18, 2, 18,
|2, 14, 2, 16,
|2, 16, 2, 20,
|2, 14, 2, 16,
|2, 18, 2, 16,
|2, 24, 2, 22,
|2, 22, 2, 18,
|2, 18, 2, 16,
|2, 20, 2, 20,
|2, 18, 2, 16,
|2, 18, 2, 14,
|4, 24, 4, 22,
|4, 22, 4, 20,
|2, 20, 2, 20,
|2, 18, 2, 18,
|2, 20, 2, 20,
|2, 20, 2, 18|];
